Route #1: 42 36 28 18 24 10 58 6 32 67
Route #2: 29 3 11 39 23 25 63
Route #3: 19 53 38 55 40 50
Route #4: 64 43 46 13 66 27
Route #5: 65 62 14 5 54 16 59 45 12
Route #6: 52 9 48 44 34 30 21 7 47
Route #7: 31 35 60 4 1 56 33 15
Route #8: 20 26 61 51 57 17
Route #9: 37 41 8 2 22 49
Cost 1290
Time 0.121744
